row=9;
column=9;
Board=[|0,4,6,0,0,0,0,0,0|0,0,0,0,0,0,0,0,5|0,0,4,6,5,0,0,0,0|0,0,0,0,0,0,0,0,0|0,0,0,0,0,0,0,1,0|0,0,0,0,0,0,0,0,0|0,0,0,0,0,0,0,0,2|0,0,6,0,0,0,0,0,3|0,0,0,0,1,0,0,0,0|];
right = [4,2,4,0,1,1,3,3,2];
bottom = [2,1,5,2,3,0,2,2,3];
